k = 80;
b = 40;
AtomicConstraints =  [|
14, 1|
	14, 12|
	14, 16|
	15, 1|
	15, 12|
	15, 16|
	15, 27|
	17, 12|
	17, 16|
	17, 27|
	17, 36|
	18, 16|
	18, 27|
	18, 36|
	18, 37|
	19, 27|
	19, 36|
	19, 37|
	19, 38|
	20, 36|
	20, 37|
	20, 38|
	20, 39|
	21, 37|
	21, 38|
	21, 39|
	21, 40|
	22, 2|
	22, 38|
	22, 39|
	22, 40|
	23, 2|
	23, 3|
	23, 39|
	23, 40|
	24, 2|
	24, 3|
	24, 4|
	24, 40|
	25, 2|
	25, 3|
	25, 4|
	25, 5|
	26, 3|
	26, 4|
	26, 5|
	26, 6|
	28, 4|
	28, 5|
	28, 6|
	28, 7|
	29, 5|
	29, 6|
	29, 7|
	29, 8|
	30, 6|
	30, 7|
	30, 8|
	30, 9|
	31, 7|
	31, 8|
	31, 9|
	31, 10|
	32, 8|
	32, 9|
	32, 10|
	32, 11|
	33, 9|
	33, 10|
	33, 11|
	33, 13|
	34, 10|
	34, 11|
	34, 13|
	35, 11|
	35, 13|
	56, 45|
	56, 46|
	56, 47|
	56, 48|
	56, 49|
	56, 50|
	56, 51|
	56, 53|
	56, 44|
	67, 46|
	67, 47|
	67, 48|
	67, 49|
	67, 50|
	67, 51|
	67, 53|
	76, 46|
	76, 47|
	76, 48|
	76, 49|
	76, 50|
	76, 51|
	76, 53|
	77, 47|
	77, 48|
	77, 49|
	77, 50|
	77, 51|
	77, 53|
	78, 49|
	78, 50|
	78, 51|
	78, 53|
	79, 49|
	79, 50|
	79, 51|
	79, 53|
	80, 51|
	80, 53|
	42, 51|
	42, 53|
	41, 45|
	41, 46|
	41, 47|
	41, 48|
	41, 49|
	41, 50|
	41, 51|
	41, 53|
	41, 43|
	41, 44|
	52, 45|
	52, 46|
	52, 47|
	52, 48|
	52, 49|
	52, 50|
	52, 51|
	52, 53|
	52, 44|
	68, 45|
	68, 46|
	68, 47|
	68, 48|
	68, 49|
	68, 50|
	68, 51|
	68, 53|
	68, 56|
	68, 67|
	68, 76|
	68, 77|
	68, 78|
	68, 79|
	68, 80|
	68, 42|
	69, 46|
	69, 47|
	69, 48|
	69, 49|
	69, 50|
	69, 51|
	69, 53|
	69, 67|
	69, 76|
	69, 77|
	69, 78|
	69, 79|
	69, 80|
	69, 42|
	70, 47|
	70, 48|
	70, 49|
	70, 50|
	70, 51|
	70, 53|
	70, 76|
	70, 77|
	70, 78|
	70, 79|
	70, 80|
	70, 42|
	71, 48|
	71, 49|
	71, 50|
	71, 51|
	71, 53|
	71, 77|
	71, 78|
	71, 79|
	71, 80|
	71, 42|
	72, 49|
	72, 50|
	72, 51|
	72, 53|
	72, 78|
	72, 79|
	72, 80|
	72, 42|
	73, 50|
	73, 51|
	73, 53|
	73, 79|
	73, 80|
	73, 42|
	74, 51|
	74, 53|
	74, 80|
	74, 42|
	75, 53|
	75, 42|
	65, 45|
	65, 46|
	65, 47|
	65, 48|
	65, 49|
	65, 50|
	65, 51|
	65, 53|
	65, 43|
	65, 44|
	65, 56|
	65, 67|
	65, 76|
	65, 77|
	65, 78|
	65, 79|
	65, 80|
	65, 42|
	65, 41|
	65, 52|
	66, 45|
	66, 46|
	66, 47|
	66, 48|
	66, 49|
	66, 50|
	66, 51|
	66, 53|
	66, 44|
	66, 56|
	66, 67|
	66, 76|
	66, 77|
	66, 78|
	66, 79|
	66, 80|
	66, 42|
	66, 52|
	57, 46|
	57, 47|
	57, 48|
	57, 49|
	57, 50|
	57, 51|
	57, 53|
	57, 67|
	57, 76|
	57, 77|
	57, 78|
	57, 79|
	57, 80|
	57, 42|
	57, 68|
	57, 69|
	57, 70|
	57, 71|
	57, 72|
	57, 73|
	57, 74|
	57, 75|
	58, 47|
	58, 48|
	58, 49|
	58, 50|
	58, 51|
	58, 53|
	58, 76|
	58, 77|
	58, 78|
	58, 79|
	58, 80|
	58, 42|
	58, 69|
	58, 70|
	58, 71|
	58, 72|
	58, 73|
	58, 74|
	58, 75|
	59, 48|
	59, 49|
	59, 50|
	59, 51|
	59, 53|
	59, 77|
	59, 78|
	59, 79|
	59, 80|
	59, 42|
	59, 70|
	59, 71|
	59, 72|
	59, 73|
	59, 74|
	59, 75|
	60, 49|
	60, 50|
	60, 51|
	60, 53|
	60, 78|
	60, 79|
	60, 80|
	60, 42|
	60, 71|
	60, 72|
	60, 73|
	60, 74|
	60, 75|
	61, 50|
	61, 51|
	61, 53|
	61, 79|
	61, 80|
	61, 42|
	61, 72|
	61, 73|
	61, 74|
	61, 75|
	62, 51|
	62, 53|
	62, 80|
	62, 42|
	62, 73|
	62, 74|
	62, 75|
	63, 53|
	63, 42|
	63, 74|
	63, 75|
	64, 75|
	54, 45|
	54, 46|
	54, 47|
	54, 48|
	54, 49|
	54, 50|
	54, 51|
	54, 53|
	54, 44|
	54, 56|
	54, 67|
	54, 76|
	54, 77|
	54, 78|
	54, 79|
	54, 80|
	54, 42|
	54, 52|
	54, 68|
	54, 69|
	54, 70|
	54, 71|
	54, 72|
	54, 73|
	54, 74|
	54, 75|
	54, 65|
	54, 66|
	55, 45|
	55, 46|
	55, 47|
	55, 48|
	55, 49|
	55, 50|
	55, 51|
	55, 53|
	55, 56|
	55, 67|
	55, 76|
	55, 77|
	55, 78|
	55, 79|
	55, 80|
	55, 42|
	55, 68|
	55, 69|
	55, 70|
	55, 71|
	55, 72|
	55, 73|
	55, 74|
	55, 75|
	55, 66|];
DisjunctiveConstraints =  [|2, 40, 2, 3|
	3, 2, 3, 4|
	4, 3, 4, 5|
	5, 4, 5, 6|
	6, 5, 6, 7|
	7, 6, 7, 8|
	8, 7, 8, 9|
	9, 8, 9, 10|
	10, 9, 10, 11|
	11, 10, 11, 13|
	14, 41, 14, 1|
	15, 14, 15, 17|
	15, 52, 15, 12|
	12, 1, 12, 16|
	17, 15, 17, 18|
	17, 56, 17, 16|
	18, 17, 18, 19|
	18, 67, 18, 27|
	19, 18, 19, 20|
	19, 76, 19, 36|
	20, 19, 20, 21|
	20, 77, 20, 37|
	21, 20, 21, 22|
	21, 78, 21, 38|
	22, 21, 22, 23|
	22, 79, 22, 39|
	23, 22, 23, 24|
	23, 80, 23, 40|
	24, 23, 24, 25|
	24, 42, 24, 2|
	25, 24, 25, 26|
	25, 43, 25, 3|
	26, 25, 26, 28|
	26, 44, 26, 4|
	16, 12, 16, 27|
	28, 26, 28, 29|
	28, 45, 28, 5|
	29, 28, 29, 30|
	29, 46, 29, 6|
	30, 29, 30, 31|
	30, 47, 30, 7|
	31, 30, 31, 32|
	31, 48, 31, 8|
	32, 31, 32, 33|
	32, 49, 32, 9|
	33, 32, 33, 34|
	33, 50, 33, 10|
	34, 33, 34, 35|
	34, 51, 34, 11|
	35, 53, 35, 13|
	27, 16, 27, 36|
	36, 27, 36, 37|
	37, 36, 37, 38|
	38, 37, 38, 39|
	39, 38, 39, 40|
	40, 39, 40, 2|
	45, 44, 45, 46|
	46, 45, 46, 47|
	47, 46, 47, 48|
	48, 47, 48, 49|
	49, 48, 49, 50|
	50, 49, 50, 51|
	51, 50, 51, 53|
	44, 43, 44, 45|
	56, 45, 56, 5|
	56, 46, 56, 6|
	56, 43, 3, 56|
	56, 52, 56, 67|
	67, 46, 67, 6|
	67, 47, 67, 7|
	67, 44, 4, 67|
	67, 56, 67, 76|
	76, 45, 5, 76|
	76, 47, 76, 7|
	76, 48, 76, 8|
	76, 67, 76, 77|
	77, 46, 6, 77|
	77, 48, 77, 8|
	77, 49, 77, 9|
	77, 76, 77, 78|
	78, 47, 7, 78|
	78, 49, 78, 9|
	78, 50, 78, 10|
	78, 77, 78, 79|
	79, 48, 8, 79|
	79, 50, 79, 10|
	79, 51, 79, 11|
	79, 78, 79, 80|
	80, 49, 9, 80|
	80, 50, 10, 80|
	80, 51, 80, 11|
	80, 53, 80, 13|
	80, 79, 80, 42|
	42, 50, 10, 42|
	42, 53, 42, 13|
	41, 43, 41, 3|
	41, 44, 41, 4|
	52, 45, 52, 5|
	52, 44, 52, 4|
	52, 41, 52, 56|
	68, 46, 68, 6|
	68, 67, 68, 27|
	68, 41, 1, 68|
	68, 66, 68, 69|
	69, 47, 69, 7|
	69, 48, 69, 8|
	69, 76, 69, 36|
	69, 52, 12, 69|
	69, 68, 69, 70|
	70, 48, 70, 8|
	70, 43, 3, 70|
	70, 56, 16, 70|
	70, 77, 70, 37|
	70, 69, 70, 71|
	71, 49, 71, 9|
	71, 44, 4, 71|
	71, 67, 27, 71|
	71, 78, 71, 38|
	71, 70, 71, 72|
	72, 45, 5, 72|
	72, 50, 72, 10|
	72, 76, 36, 72|
	72, 79, 72, 39|
	72, 71, 72, 73|
	73, 46, 6, 73|
	73, 51, 73, 11|
	73, 77, 37, 73|
	73, 80, 73, 40|
	73, 72, 73, 74|
	74, 47, 7, 74|
	74, 53, 74, 13|
	74, 78, 38, 74|
	74, 42, 74, 2|
	74, 73, 74, 75|
	75, 48, 8, 75|
	75, 79, 39, 75|
	65, 44, 65, 4|
	65, 52, 65, 12|
	66, 45, 66, 5|
	66, 56, 66, 16|
	66, 65, 66, 68|
	57, 47, 57, 7|
	57, 76, 57, 36|
	57, 68, 57, 28|
	57, 69, 57, 29|
	57, 65, 25, 57|
	57, 55, 57, 58|
	58, 48, 58, 8|
	58, 77, 58, 37|
	58, 69, 58, 29|
	58, 70, 58, 30|
	58, 66, 26, 58|
	58, 57, 58, 59|
	59, 49, 59, 9|
	59, 78, 59, 38|
	59, 41, 1, 59|
	59, 68, 28, 59|
	59, 70, 59, 30|
	59, 71, 59, 31|
	59, 58, 59, 60|
	60, 50, 60, 10|
	60, 79, 60, 39|
	60, 41, 1, 60|
	60, 52, 12, 60|
	60, 69, 29, 60|
	60, 71, 60, 31|
	60, 72, 60, 32|
	60, 59, 60, 61|
	61, 51, 61, 11|
	61, 43, 3, 61|
	61, 56, 16, 61|
	61, 80, 61, 40|
	61, 70, 30, 61|
	61, 72, 61, 32|
	61, 73, 61, 33|
	61, 60, 61, 62|
	62, 53, 62, 13|
	62, 43, 3, 62|
	62, 44, 4, 62|
	62, 67, 27, 62|
	62, 42, 62, 2|
	62, 71, 31, 62|
	62, 73, 62, 33|
	62, 74, 62, 34|
	62, 61, 62, 63|
	63, 45, 5, 63|
	63, 44, 4, 63|
	63, 76, 36, 63|
	63, 72, 32, 63|
	63, 74, 63, 34|
	63, 75, 63, 35|
	63, 62, 63, 64|
	64, 45, 5, 64|
	64, 46, 6, 64|
	64, 77, 37, 64|
	64, 73, 33, 64|
	64, 75, 64, 35|
	54, 45, 54, 5|
	54, 56, 54, 16|
	54, 65, 54, 25|
	54, 66, 54, 26|
	55, 46, 55, 6|
	55, 67, 55, 27|
	55, 68, 55, 28|
	55, 66, 55, 26|
	55, 54, 55, 57|];
SoftAtomicConstraints =  [|
40, 2|
2, 3|
3, 4|
4, 5|
5, 6|
6, 7|
7, 8|
8, 9|
9, 10|
10, 11|
1, 12|
11, 13|
14, 15|
12, 16|
15, 17|
17, 18|
18, 19|
19, 20|
20, 21|
21, 22|
22, 23|
23, 24|
24, 25|
25, 26|
16, 27|
26, 28|
28, 29|
29, 30|
30, 31|
31, 32|
32, 33|
33, 34|
34, 35|
27, 36|
36, 37|
37, 38|
38, 39|
39, 40|
80, 42|
43, 44|
44, 45|
45, 46|
46, 47|
47, 48|
48, 49|
49, 50|
50, 51|
41, 52|
51, 53|
54, 55|
52, 56|
55, 57|
57, 58|
58, 59|
59, 60|
60, 61|
61, 62|
62, 63|
63, 64|
65, 66|
56, 67|
66, 68|
68, 69|
69, 70|
70, 71|
71, 72|
72, 73|
73, 74|
74, 75|
67, 76|
76, 77|
77, 78|
78, 79|
79, 80|];
DirectSuccessors =  [1,
2,
3,
4,
5,
6,
7,
8,
9,
10,
11,
12,
13,
14,
15,
16,
17,
18,
19,
20,
21,
22,
23,
24,
25,
26,
27,
28,
29,
30,
31,
32,
33,
34,
35,
36,
37,
38,
39,
40];
